
;this file is automatically generated: Thu Jan 02 16:54:47 GMT 2020

;declarations generated

(declare-fun oclExcludes ( Int Int) Bool)
(declare-fun Cardinality ( Int) Int)
(declare-fun type_5a59120c_1e32_4705_84c4_0d910db0ec4f_Class2 ( Int) Bool)
(declare-fun type_5a59120c_1e32_4705_84c4_0d910db0ec4f_Class56 ( Int) Bool)
(declare-fun type_5a59120c_1e32_4705_84c4_0d910db0ec4f_Class36 ( Int) Bool)
(declare-fun type_5a59120c_1e32_4705_84c4_0d910db0ec4f_Class27 ( Int) Bool)
(declare-fun type_5a59120c_1e32_4705_84c4_0d910db0ec4f_Class29 ( Int) Bool)
(declare-fun type_5a59120c_1e32_4705_84c4_0d910db0ec4f_Class21 ( Int) Bool)
(declare-fun obj_a9ef53f0_799f_44aa_ae6a_b4251ddbc3ce ( Int) Int)
(declare-fun oclSelect ( Int Bool) Int)
(declare-fun class21_Class21IntAttr3 ( Int) Int)
(declare-fun Enum0 ( Int) Int)
(declare-fun Enum1 ( Int) Int)
(declare-fun Enum2 ( Int) Int)
(declare-fun container_ ( Int) Int)
(declare-fun oclIncludes ( Int Int) Bool)
(declare-fun ObjAt ( Int Int) Int)

;formula(s) generated
(assert (! (forall ((v Int)) (=> (and (and (and (and (and ( type_5a59120c_1e32_4705_84c4_0d910db0ec4f_Class21 v )  ( type_5a59120c_1e32_4705_84c4_0d910db0ec4f_Class56 v ) ) ( type_5a59120c_1e32_4705_84c4_0d910db0ec4f_Class36 v ) ) ( type_5a59120c_1e32_4705_84c4_0d910db0ec4f_Class27 v ) ) ( type_5a59120c_1e32_4705_84c4_0d910db0ec4f_Class29 v ) ) ( type_5a59120c_1e32_4705_84c4_0d910db0ec4f_Class2 v ) ) (= ( class21_Class21IntAttr3 ( obj_a9ef53f0_799f_44aa_ae6a_b4251ddbc3ce v )  )  2))):named l0))
(assert (exists ((o Int)) (and (and (and (and (and ( type_5a59120c_1e32_4705_84c4_0d910db0ec4f_Class21 ( obj_a9ef53f0_799f_44aa_ae6a_b4251ddbc3ce o )  )  ( type_5a59120c_1e32_4705_84c4_0d910db0ec4f_Class56 ( obj_a9ef53f0_799f_44aa_ae6a_b4251ddbc3ce o )  ) ) ( type_5a59120c_1e32_4705_84c4_0d910db0ec4f_Class36 ( obj_a9ef53f0_799f_44aa_ae6a_b4251ddbc3ce o )  ) ) ( type_5a59120c_1e32_4705_84c4_0d910db0ec4f_Class27 ( obj_a9ef53f0_799f_44aa_ae6a_b4251ddbc3ce o )  ) ) ( type_5a59120c_1e32_4705_84c4_0d910db0ec4f_Class29 ( obj_a9ef53f0_799f_44aa_ae6a_b4251ddbc3ce o )  ) ) ( type_5a59120c_1e32_4705_84c4_0d910db0ec4f_Class2 ( obj_a9ef53f0_799f_44aa_ae6a_b4251ddbc3ce o )  ) )))

 ;end of formula 